
Gurobi 9.5.2 (win64) logging started Mon Mar 27 20:29:32 2023

Set parameter LogFile to value "2023-03-27_20hr-25min-09sec/Nodes10_Arcs25_LocNodes8/Formulation-1Instance-3.log"
Set parameter TimeLimit to value 600
Set parameter IntFeasTol to value 1e-09
Set parameter DualReductions to value 0
Set parameter NonConvex to value 2
Gurobi Optimizer version 9.5.2 build v9.5.2rc0 (win64)
Thread count: 4 physical cores, 8 logical processors, using up to 8 threads
Optimize a model with 54 rows, 96 columns and 222 nonzeros
Model fingerprint: 0x9806b940
Model has 8 quadratic objective terms
Model has 35 SOS constraints
Variable types: 88 continuous, 8 integer (8 binary)
Coefficient statistics:
  Matrix range     [3e-02, 2e+02]
  Objective range  [3e+00, 2e+02]
  QObjective range [2e+00, 2e+00]
  Bounds range     [1e+00, 1e+00]
  RHS range        [6e-02, 1e+03]
Presolve time: 0.00s
Presolved: 71 rows, 106 columns, 263 nonzeros
Presolved model has 35 SOS constraint(s)
Presolved model has 8 bilinear constraint(s)
Variable types: 98 continuous, 8 integer (8 binary)

Root relaxation: unbounded, 51 iterations, 0.00 seconds (0.00 work units)

    Nodes    |    Current Node    |     Objective Bounds      |     Work
 Expl Unexpl |  Obj  Depth IntInf | Incumbent    BestBd   Gap | It/Node Time

     0     0  postponed    0               -          -      -     -    0s
     0     0  postponed    0               -          -      -     -    0s
Exploring 100 nodes in MinRel heuristic
No solution found by MinRel heuristic
     0     2  postponed    0               -          -      -     -    0s
Exploring 10000 nodes in MinRel heuristic
H 5010   617                    -3941.879205          -      -  10.8    2s
Feasible solution found by MinRel heuristic at node 3199
H 6602   480                    -3433.879205          -      -  10.8    2s
H 7353   482                    53104.008505          -      -  10.8    2s
 13142   420 infeasible   28      53104.0085          -      -  17.9    5s
H14577   448                    58723.743210          -      -  19.0    5s
H14582   448                    85950.120350          -      -  19.0    5s
*18012   701             104    85987.619739          -      -  20.4    7s
H20343   639                    86320.619711          -      -  20.8    8s
 24984   713 infeasible   28      86320.6197          -      -  22.4   10s
H26283   704                    96868.102300          -      -  22.7   10s
H27916   785                    97003.501624          -      -  23.1   11s
H29556   871                    97195.045141          -      -  23.6   11s
H31646   900                    97373.656618          -      -  24.0   12s
*39816   128              95    97374.603842 116790.095  19.9%  23.2   14s
 40957   374 97384.3405   56    3 97374.6038 101833.484  4.58%  22.7   15s
*41131   374              68    97374.894571 101833.484  4.58%  22.6   15s
*41132   374              68    97374.895410 101833.484  4.58%  22.6   15s
*43156   627              68    97374.944531 97397.1938  0.02%  21.6   15s
*43158   627              69    97374.944546 97397.1938  0.02%  21.6   15s
*43190   627              73    97375.007012 97397.1938  0.02%  21.6   15s
*43192   627              74    97375.013753 97397.1938  0.02%  21.6   15s
*43195   627              73    97375.065141 97397.1938  0.02%  21.6   15s
*43304   627              74    97375.142689 97397.1938  0.02%  21.5   15s
*43382   627              67    97375.159445 97397.1938  0.02%  21.5   15s
*43385   627              69    97375.162243 97397.1938  0.02%  21.5   15s
*43390   627              72    97375.162358 97397.1938  0.02%  21.5   15s

Explored 44527 nodes (932666 simplex iterations) in 15.39 seconds (2.81 work units)
Thread count was 8 (of 8 available processors)

Solution count 10: 97375.2 97375.2 97375.2 ... 97374.9

Optimal solution found (tolerance 1.00e-04)
Best objective 9.737516235819e+04, best bound 9.737905562494e+04, gap 0.0040%

User-callback calls 90311, time in user-callback 1.01 sec
